
List of user-set options:

                                    Name   Value                used
                        file_print_level = 5                     yes
                   hessian_approximation = limited-memory        yes
                                  hsllib = /home/ggs24/packages/ThirdParty-HSL/.libs/libcoinhsl.so  yes
                           linear_solver = ma97                  yes
                                max_iter = 500                   yes
                             output_file = IPOPT.out             yes
                             print_level = 0                     yes
                      print_user_options = yes                   yes
                                      sb = yes                   yes
This is Ipopt version 3.14.7, running with linear solver ma97.

Number of nonzeros in equality constraint Jacobian...:       60
Number of nonzeros in inequality constraint Jacobian.:     3660
Number of nonzeros in Lagrangian Hessian.............:        0

Total number of variables............................:       15
                     variables with only lower bounds:        1
                variables with lower and upper bounds:        0
                     variables with only upper bounds:        0
Total number of equality constraints.................:        4
Total number of inequality constraints...............:      244
        inequality constraints with only lower bounds:        0
   inequality constraints with lower and upper bounds:      183
        inequality constraints with only upper bounds:       61

iter    objective    inf_pr   inf_du lg(mu)  ||d||  lg(rg) alpha_du alpha_pr  ls
   0  1.0000000e+01 2.29e+00 2.47e-05   0.0 0.00e+00    -  0.00e+00 0.00e+00   0
   1  1.1807730e+01 1.55e+00 3.63e+00  -1.0 4.97e+00    -  6.34e-01 3.63e-01f  1
   2  1.5754114e+01 5.17e-01 1.30e+01  -0.9 4.03e+00    -  2.62e-01 9.79e-01f  1
   3  2.0758307e+01 1.16e-01 6.27e+00  -1.4 5.00e+00    -  5.02e-01 1.00e+00h  1
   4  2.2968803e+01 8.88e-16 3.08e-01  -1.5 2.21e+00    -  9.95e-01 1.00e+00h  1
   5  2.2941073e+01 8.88e-16 5.83e-02  -2.4 1.86e-01    -  9.91e-01 1.00e+00h  1
   6  2.2819490e+01 1.27e-03 7.95e-02  -2.8 1.69e-01    -  9.97e-01 7.18e-01h  1
   7  2.2707577e+01 4.07e-04 3.29e-02  -3.4 1.19e-01    -  9.96e-01 9.41e-01h  1
   8  2.2688121e+01 2.50e-04 1.66e-01  -4.4 9.81e-02    -  1.00e+00 7.11e-01h  1
   9  2.2681723e+01 1.21e-04 5.20e-01  -5.6 3.15e-02    -  1.00e+00 6.01e-01h  1
iter    objective    inf_pr   inf_du lg(mu)  ||d||  lg(rg) alpha_du alpha_pr  ls
  10  2.2686221e+01 8.88e-16 6.88e-04  -3.8 5.82e-03    -  1.00e+00 1.00e+00h  1
  11  2.2681934e+01 1.31e-06 3.28e-01  -5.4 1.39e-02    -  9.97e-01 5.79e-01h  1
  12  2.2681384e+01 8.88e-16 8.53e-04  -4.4 6.53e-03    -  1.00e+00 1.00e+00f  1
  13  2.2680843e+01 2.18e-09 5.51e-01  -5.2 8.02e-03    -  9.90e-01 6.41e-01h  1
  14  2.2680776e+01 1.04e-07 8.47e-01  -5.1 5.99e-03    -  1.00e+00 6.47e-01h  1
  15  2.2680700e+01 2.26e-07 2.51e-01  -5.6 2.89e-03    -  1.00e+00 9.03e-01h  1
  16  2.2680676e+01 4.44e-16 1.03e-02  -6.3 3.38e-03    -  1.00e+00 9.86e-01h  1
  17  2.2680671e+01 0.00e+00 1.03e-05  -7.8 8.48e-04    -  1.00e+00 9.70e-01h  1
  18  2.2680670e+01 6.35e-11 1.03e-06  -9.9 1.02e-04    -  1.00e+00 1.00e+00h  1
  19  2.2680670e+01 4.44e-16 6.67e-09 -11.0 3.53e-07    -  1.00e+00 1.00e+00h  1

Number of Iterations....: 19

                                   (scaled)                 (unscaled)
Objective...............:   2.2680670401794487e+01    2.2680670401794487e+01
Dual infeasibility......:   6.6702137424545782e-09    6.6702137424545782e-09
Constraint violation....:   4.4408920985006262e-16    4.4408920985006262e-16
Variable bound violation:   0.0000000000000000e+00    0.0000000000000000e+00
Complementarity.........:   1.0104749048540250e-11    1.0104749048540250e-11
Overall NLP error.......:   6.6702137424545782e-09    6.6702137424545782e-09


Number of objective function evaluations             = 20
Number of objective gradient evaluations             = 20
Number of equality constraint evaluations            = 20
Number of inequality constraint evaluations          = 20
Number of equality constraint Jacobian evaluations   = 20
Number of inequality constraint Jacobian evaluations = 20
Number of Lagrangian Hessian evaluations             = 0
Total seconds in IPOPT                               = 0.637

EXIT: Optimal Solution Found.
